$rem
   JOBTYPE  opt
   EXCHANGE   HF
   BASIS   6-31G
   UNRESTRICTED   False
   max_scf_cycles   250
   geom_opt_max_cycles   1
   basis2 6-31G*
   scf_algorithm rca_diis
   SYM_IGNORE  TRUE
   print_input   true
   geom_opt_dmax   80
   pop_mulliken false
   XC_GRID 000075000302
$end

$molecule
0 1
H       2.0136346926     -0.2446782314     0.1898526412
C       1.0676975015     0.2393379642     -0.0260742760
H       0.9153701475     1.0387679677     0.6872449329
H       1.1177544926     0.6746427376     -1.0155793412
C       -0.0722259149     -0.7533299263     0.0507116942
H       -0.1921842870     -1.2728789260     -0.8944235192
H       0.1165170293     -1.4947328362     0.8203216346
O       -1.2614607172     -0.0106288783     0.3608978939
H       -1.3764995346     0.7674106861     -0.1729593693
$end
