$rem
   JOBTYPE  sp
   EXCHANGE   HF
   BASIS   6-31G
   UNRESTRICTED   False
   max_scf_cycles   250
   geom_opt_max_cycles   1500
   basis2 6-31G*
   scf_algorithm rca_diis
   SYM_IGNORE  TRUE
   print_input   true
   geom_opt_dmax   80
   pop_mulliken false
   XC_GRID 000075000302
$end

$molecule
0 1
H       2.0617572261     -0.4251899664     0.1726876658
C       1.2153672930     0.2305139992     0.0013118462
H       1.1721422053     0.9586228693     0.8007524707
H       1.3687654930     0.7601059773     -0.9298796223
C       -0.0734003525     -0.5611273746     -0.0543021129
H       -0.1302626545     -1.1365888825     -0.9725681296
H       -0.1347779482     -1.2523572640     0.7799854065
O       -1.1540282159     0.3826922620     0.0052600744
H       -1.9969596366     -0.0127610628     0.1967446921
$end
