$rem
   JOBTYPE  opt
   EXCHANGE   HF
   BASIS   6-31G
   UNRESTRICTED   False
   max_scf_cycles   250
   geom_opt_max_cycles   1
   basis2 6-31G*
   scf_algorithm rca_diis
   SYM_IGNORE  TRUE
   print_input   true
   geom_opt_dmax   80
   pop_mulliken false
   XC_GRID 000075000302
$end

$molecule
0 1
H       2.0818670259     -0.4723253314     -0.0000000339
C       1.2281290727     0.2240139358     -0.0000004402
H       1.2914067282     0.8645114486     0.8931450395
H       1.2914063554     0.8645103660     -0.8931467131
C       -0.0873918515     -0.5511797686     0.0000004126
H       -0.1371634273     -1.2067095576     -0.8939457390
H       -0.1371624180     -1.2067092313     0.8939469357
O       -1.1560859829     0.4029703922     0.0000008981
H       -1.9860897285     -0.1040458353     -0.0000065090
$end
