$rem
   JOBTYPE  sp
   EXCHANGE   HF
   BASIS   6-31G
   UNRESTRICTED   False
   max_scf_cycles   250
   geom_opt_max_cycles   1500
   basis2 6-31G*
   scf_algorithm rca_diis
   SYM_IGNORE  TRUE
   print_input   true
   geom_opt_dmax   80
   pop_mulliken false
   XC_GRID 000075000302
$end

$molecule
0 1
H       2.0754917561     -0.4332642446     -0.0000004896
C       1.2180238686     0.2303938773     -0.0000005193
H       1.2680548769     0.8631057445     0.8765203523
H       1.2680541828     0.8631050836     -0.8765218933
C       -0.0722125325     -0.5608084044     0.0000004290
H       -0.1325062168     -1.1954344421     -0.8781887361
H       -0.1325051617     -1.1954337596     0.8781900963
O       -1.1510942987     0.3868802969     0.0000011657
H       -2.0127030649     -0.0146335942     -0.0000081140
$end
