$rem
   JOBTYPE  opt
   EXCHANGE   B97-D
   BASIS   6-31G*
   UNRESTRICTED   False
   max_scf_cycles   250
   geom_opt_max_cycles   1
   basis2 6-31G*
   scf_algorithm rca_diis
   SYM_IGNORE  TRUE
   print_input   true
   geom_opt_dmax   80
   pop_mulliken false
   XC_GRID 000075000302
$end

$molecule
0 1
H       2.0701940055     -0.3987639065     0.0056089506
C       1.1887506078     0.2326106545     -0.0052068316
H       1.2377219247     0.9124934612     0.8353152837
H       1.1923250754     0.8191387401     -0.9146507551
C       -0.0705028351     -0.6034642867     0.0720620540
H       -0.2147284989     -1.1646463866     -0.8454756043
H       -0.0110547112     -1.3107485782     0.8929253106
O       -1.1677890341     0.2999991576     0.2765529887
H       -1.8963131244     0.1572917021     -0.3171391056
$end
