$rem
   JOBTYPE  sp
   EXCHANGE   B97-D
   BASIS   6-31G*
   UNRESTRICTED   False
   max_scf_cycles   250
   geom_opt_max_cycles   1500
   basis2 6-31G*
   scf_algorithm rca_diis
   SYM_IGNORE  TRUE
   print_input   true
   geom_opt_dmax   80
   pop_mulliken false
   XC_GRID 000075000302
$end

$molecule
0 1
H       1.7807842783     0.1809417527     0.7605510231
C       1.1804684927     0.2983757822     -0.1347274181
H       0.9069153512     1.3405316231     -0.2357033016
H       1.7784656144     0.0214919934     -0.9931276930
C       -0.0618890960     -0.5631613169     -0.0639286197
H       -0.3690267424     -0.8749737579     -1.0569246991
H       0.1233012813     -1.4548264875     0.5261894888
O       -1.0928781029     0.2283101320     0.5465911205
H       -1.9175376669     -0.2327791637     0.6510723900
$end
