$rem
   JOBTYPE  opt
   EXCHANGE   HF
   BASIS   6-31G
   UNRESTRICTED   False
   max_scf_cycles   250
   geom_opt_max_cycles   1
   basis2 6-31G*
   scf_algorithm rca_diis
   SYM_IGNORE  TRUE
   print_input   true
   geom_opt_dmax   80
   pop_mulliken false
   XC_GRID 000075000302
$end

$molecule
0 1
H       1.5040505303     1.1035655018     -0.5942638183
C       1.1615618693     0.3419316789     0.0973348499
H       1.8566326836     -0.4871816721     0.0735890867
H       1.1624884317     0.7548465905     1.0976431220
C       -0.2281590337     -0.1309227882     -0.2711695408
H       -0.9316961803     0.6950622322     -0.2515232902
H       -0.2361414059     -0.5556634650     -1.2697351488
O       -0.6071513161     -1.1260281042     0.6922773960
H       -1.3529821692     -1.6516994165     0.4258396345
$end
