$rem
   JOBTYPE  sp
   EXCHANGE   HF
   BASIS   6-31G
   UNRESTRICTED   False
   max_scf_cycles   250
   geom_opt_max_cycles   1500
   basis2 6-31G*
   scf_algorithm rca_diis
   SYM_IGNORE  TRUE
   print_input   true
   geom_opt_dmax   80
   pop_mulliken false
   XC_GRID 000075000302
$end

$molecule
0 1
H       1.9991200520     -0.3137408719     0.4860998503
C       1.2001690997     0.2329005901     -0.0023198142
H       1.0326959764     1.1574818523     0.5345400275
H       1.5118965698     0.4786623419     -1.0090687242
C       -0.0700196677     -0.5894518240     -0.0350004427
H       -0.2963584700     -0.9047652622     -1.0483858225
H       0.0332492678     -1.4785267316     0.5785816382
O       -1.1262714410     0.2409421826     0.4718306190
H       -1.9558779772     0.1204082802     0.0237149595
$end
