$rem
   JOBTYPE  opt
   EXCHANGE   HF
   BASIS   6-31G
   UNRESTRICTED   False
   max_scf_cycles   250
   geom_opt_max_cycles   1
   basis2 6-31G*
   scf_algorithm rca_diis
   SYM_IGNORE  TRUE
   print_input   true
   geom_opt_dmax   80
   pop_mulliken false
   XC_GRID 000075000302
$end

$molecule
0 1
H       2.0750563992     -0.4325754068     -0.0217240528
C       1.2173494457     0.2304426478     -0.0007688097
H       1.2828603787     0.8559752948     0.8798749731
H       1.2511600218     0.8703621949     -0.8728215834
C       -0.0722234467     -0.5616620104     0.0160534030
H       -0.1448455191     -1.1942060029     -0.8627047424
H       -0.1193294190     -1.1984499640     0.8934836075
O       -1.1516224170     0.3852670383     0.0340250429
H       -2.0098020338     -0.0112432342     -0.0654255471
$end
